Tables = {Table1};
wanted_days = [{Mon}, {}, {}, {}, {}];
wanted_number_days = [{5}, {0}, {0}, {0}, {0}];
wanted_breaks = [true, true, false, false, true];
desired_partners = [{}, {}, {}, {}, {}];
n_agents = 5;
max_wfh_days = 5;